NAME          BLANK   
ROWS
 N  OBJROW
 L  R0000000
COLUMNS
    C0000000  OBJROW     -236.         R0000000  881.        
    C0000001  OBJROW     -195.         R0000000  802.        
    C0000002  OBJROW     -780.         R0000000  408.        
    C0000003  OBJROW     -7.           R0000000  723.        
    C0000004  OBJROW     -544.         R0000000  237.        
    C0000005  OBJROW     -505.         R0000000  316.        
    C0000006  OBJROW     -650.         R0000000  663.        
    C0000007  OBJROW     -331.         R0000000  944.        
    C0000008  OBJROW     -420.         R0000000  240.        
    C0000009  OBJROW     -98.          R0000000  870.        
    C0000010  OBJROW     -709.         R0000000  423.        
    C0000011  OBJROW     -614.         R0000000  107.        
    C0000012  OBJROW     -460.         R0000000  702.        
    C0000013  OBJROW     -637.         R0000000  150.        
    C0000014  OBJROW     -734.         R0000000  909.        
    C0000015  OBJROW     -331.         R0000000  492.        
    C0000016  OBJROW     -448.         R0000000  382.        
    C0000017  OBJROW     -523.         R0000000  264.        
RHS
    RHS       R0000000  14110.      
BOUNDS
 BV BOUND     C0000000  1.          
 BV BOUND     C0000001  1.          
 BV BOUND     C0000002  1.          
 BV BOUND     C0000003  1.          
 BV BOUND     C0000004  1.          
 BV BOUND     C0000005  1.          
 BV BOUND     C0000006  1.          
 BV BOUND     C0000007  1.          
 BV BOUND     C0000008  1.          
 BV BOUND     C0000009  1.          
 BV BOUND     C0000010  1.          
 BV BOUND     C0000011  1.          
 BV BOUND     C0000012  1.          
 BV BOUND     C0000013  1.          
 BV BOUND     C0000014  1.          
 BV BOUND     C0000015  1.          
 BV BOUND     C0000016  1.          
 BV BOUND     C0000017  1.          
ENDATA
